\ Model _copy
\ LP format - for model browsing. Use MPS format to capture full model detail.
Minimize
 
Subject To
 a2: x_0_2 + x_1_2 = 8
Bounds
 -infinity <= x_0_2 <= 5
 -infinity <= x_1_2 <= 1
Generals
 x_0_2 x_1_2
End
